succeed=True
[CUDA] cuda: usage: 5.55 GB
0 :  {link #0 : 1}, {link #1 : 2}, {link #2 : 3},
1 :  {link #0 : 2}, {link #1 : 3}, {link #2 : 0},
2 :  {link #0 : 3}, {link #1 : 0}, {link #2 : 1},
3 :  {link #0 : 0}, {link #1 : 1}, {link #2 : 2},
0 :  {link #0 : 1}, {link #1 : 2}, {link #2 : 3},
1 :  {link #0 : 2}, {link #1 : 3}, {link #2 : 0},
2 :  {link #0 : 3}, {link #1 : 0}, {link #2 : 1},
3 :  {link #0 : 0}, {link #1 : 1}, {link #2 : 2},
0 :  {link #0 : 1}, {link #1 : 2}, {link #2 : 3},
1 :  {link #0 : 2}, {link #1 : 3}, {link #2 : 0},
2 :  {link #0 : 3}, {link #1 : 0}, {link #2 : 1},
3 :  {link #0 : 0}, {link #1 : 1}, {link #2 : 2},
0 : local 72, cpu 8 {link #0 : g1 24}, {link #1 : g2 24}, {link #2 : g3 24},
1 : local 72, cpu 8 {link #0 : g2 24}, {link #1 : g3 24}, {link #2 : g0 24},
2 : local 72, cpu 8 {link #0 : g3 24}, {link #1 : g0 24}, {link #2 : g1 24},
3 : local 72, cpu 8 {link #0 : g0 24}, {link #1 : g1 24}, {link #2 : g2 24},
0 : local 72, cpu 8 {link #0 : g1 24}, {link #1 : g2 24}, {link #2 : g3 24},
1 : local 72, cpu 8 {link #0 : g2 24}, {link #1 : g3 24}, {link #2 : g0 24},
2 : local 72, cpu 8 {link #0 : g3 24}, {link #1 : g0 24}, {link #2 : g1 24},
3 : local 72, cpu 8 {link #0 : g0 24}, {link #1 : g1 24}, {link #2 : g2 24},
0 : local 72, cpu 8 {link #0 : g1 24}, {link #1 : g2 24}, {link #2 : g3 24},
1 : local 72, cpu 8 {link #0 : g2 24}, {link #1 : g3 24}, {link #2 : g0 24},
2 : local 72, cpu 8 {link #0 : g3 24}, {link #1 : g0 24}, {link #2 : g1 24},
3 : local 72, cpu 8 {link #0 : g0 24}, {link #1 : g1 24}, {link #2 : g2 24},
0 :  {link #0 : 1}, {link #1 : 2}, {link #2 : 3},
1 :  {link #0 : 2}, {link #1 : 3}, {link #2 : 0},
2 :  {link #0 : 3}, {link #1 : 0}, {link #2 : 1},
3 :  {link #0 : 0}, {link #1 : 1}, {link #2 : 2},
0 : local 72, cpu 8 {link #0 : g1 24}, {link #1 : g2 24}, {link #2 : g3 24},
1 : local 72, cpu 8 {link #0 : g2 24}, {link #1 : g3 24}, {link #2 : g0 24},
2 : local 72, cpu 8 {link #0 : g3 24}, {link #1 : g0 24}, {link #2 : g1 24},
3 : local 72, cpu 8 {link #0 : g0 24}, {link #1 : g1 24}, {link #2 : g2 24},
Set parameter WLSAccessID
Set parameter WLSSecret
Set parameter LicenseID
Set parameter TimeLimit to value 200
Set parameter MIPGap to value 0.05
Set parameter LogFile to value "cppsolver.log"
Set parameter Threads to value 40
Academic license - for non-commercial use only - registered to xiaoniu.sxn@sjtu.edu.cn
Gurobi Optimizer version 9.5.1 build v9.5.1rc2 (linux64)
Thread count: 40 physical cores, 80 logical processors, using up to 40 threads
Academic license - for non-commercial use only - registered to xiaoniu.sxn@sjtu.edu.cn
Optimize a model with 26236 rows, 8573 columns and 80664 nonzeros
Model fingerprint: 0xa9bdb1b0
Variable types: 5 continuous, 8568 integer (8568 binary)
Coefficient statistics:
  Matrix range     [5e-09, 1e+04]
  Objective range  [1e+00, 1e+00]
  Bounds range     [1e+00, 1e+00]
  RHS range        [1e+00, 1e+04]
Warning: Model contains large matrix coefficient range
         Consider reformulating model or setting NumericFocus parameter
         to avoid numerical issues.
Found heuristic solution: objective 47132.459268
Presolve removed 18150 rows and 3 columns
Presolve time: 0.11s
Presolved: 8086 rows, 8570 columns, 38855 nonzeros
Variable types: 1 continuous, 8569 integer (8568 binary)

Root relaxation: objective 8.309861e+03, 9738 iterations, 0.23 seconds (0.21 work units)

    Nodes    |    Current Node    |     Objective Bounds      |     Work
 Expl Unexpl |  Obj  Depth IntInf | Incumbent    BestBd   Gap | It/Node Time

     0     0 8309.86147    0   25 47132.4593 8309.86147  82.4%     -    0s
H    0     0                    8424.5627682 8309.86147  1.36%     -    0s

Explored 1 nodes (13211 simplex iterations) in 0.47 seconds (0.38 work units)
Thread count was 40 (of 80 available processors)

Solution count 2: 8424.56 47132.5 

Optimal solution found (tolerance 5.00e-02)
Best objective 8.424562768184e+03, best bound 8.309861472478e+03, gap 1.3615%
coll_cache:optimal_local_rate=0.245892,0.20538,0.231806,0.20952,
coll_cache:optimal_remote_rate=0.646707,0.687218,0.660792,0.683078,
coll_cache:optimal_cpu_rate=0.107402,0.107402,0.107402,0.107402,
z=8424.56
test_result:init:feat_nbytes=56862697472
test_result:init:cache_nbytes=5743132160
test_result:init:feat_nbytes=56862697472
test_result:init:cache_nbytes=5743132160
test_result:init:feat_nbytes=56862697472
test_result:init:cache_nbytes=5743132160
test_result:init:feat_nbytes=56862697472
test_result:init:cache_nbytes=5743132160
    [Step(average) Profiler Level 1 E3 S999]
        L1  sample           0.003918 | send           0.000000
        L1  recv             0.000000 | copy           0.007053 | convert time 0.000000 | train  0.007345
        L1  feature nbytes  563.46 MB | label nbytes 0.00 Bytes
        L1  id nbytes      0.00 Bytes | graph nbytes 0.00 Bytes
        L1  miss nbytes      65.29 MB | remote nbytes  373.53 MB
        L1  num nodes               0 | num samples           0
        L1  seq duration     0.000000 | refresh duration   0.000000
    [Step(average) Profiler Level 2 E3 S999]
        L2  shuffle     0.000000 | core sample  0.000000 | id remap        0.000000
        L2  graph copy  0.000000 | id copy      0.000000 | cache feat copy 0.007053
        L2  last layer sample time 0.000000 | size 0.000000
    [Step(average) Profiler Level 3 E3 S999]
        L3  khop sample coo  0.000000 | khop sort coo      0.000000 | khop count edge     0.000000 | khop compact edge 0.000000
        L3  walk sample coo  0.000000 | walk topk total    0.000000 | walk topk step1     0.000000 | walk topk step2   0.000000
        L3  walk topk step3  0.000000 | walk topk step4    0.000000 | walk topk step5     0.000000
        L3  walk topk step6  0.000000 | walk topk step7    0.000000
        L3  remap unique     0.000000 | remap populate     0.000000 | remap mapnode       0.000000 | remap mapedge     0.000000
        L3  cache get_index  0.000900 | cache copy_index   0.000000 | cache extract_miss  0.000000
        L3  cache copy_miss  0.000000 | cache combine_miss 0.006111 | cache combine cache 0.000396 | cache combine remote 0.003331
        L3  label extract  0.000000
    [Profiler Level Percentiles E3 S999]
        p50.00_tail_logl2featcopy=0.007089
        p90.00_tail_logl2featcopy=0.007480
        p95.00_tail_logl2featcopy=0.007523
        p99.00_tail_logl2featcopy=0.007616
        p99.90_tail_logl2featcopy=0.009670
[CUDA] cuda: usage: 15.13 GB
Rank=3, Graph loaded.
!!!!dist_homo_graph enumerate latency per epoch: 0.010526, per step: 0.000042
presamping
presamping takes 12.866707801818848
Rank=1, Graph loaded.
!!!!dist_homo_graph enumerate latency per epoch: 0.012384, per step: 0.000050
presamping
presamping takes 19.6334490776062
Rank=2, Graph loaded.
!!!!dist_homo_graph enumerate latency per epoch: 0.011797, per step: 0.000047
presamping
presamping takes 16.428630590438843
config:eval_tsp="2023-04-14 17:54:22"
config:num_worker=4
config:num_intra_size=4
config:root_dir=/nvme/songxiaoniu/graph-learning/wholegraph
config:graph_name=ogbn-papers100M
config:epochs=4
config:batchsize=2000
config:skip_epoch=2
config:local_step=250
config:presc_epoch=2
config:neighbors=10,25
config:hiddensize=256
config:num_layer=2
config:model=sage
config:framework=dgl
config:dataloaderworkers=0
config:dropout=0.5
config:lr=0.003
config:use_nccl=False
config:use_amp=True
config:use_collcache=True
config:cache_percentage=0.1
config:cache_policy=coll_cache_asymm_link
config:omp_thread_num=40
config:unsupervised=True
config:classnum=172
config:global_barrier=<multiprocessing.synchronize.Barrier object at 0x7f7261ea4460>
config:worker_id=0
creating_intra_node_communicator root=0, local_size=4, world_size=4
Rank=0, Graph loaded.
!!!!dist_homo_graph enumerate latency per epoch: 0.012270, per step: 0.000049
epoch=4 total_steps=1000
presamping
presamping takes 17.652432918548584
start training...
[Epoch 0], time=6.021277904510498, loss=0.6931472420692444
[Epoch 1], time=4.604595899581909, loss=0.6931472420692444
[Epoch 2], time=4.588298082351685, loss=0.6931472420692444
[Epoch 3], time=4.589810848236084, loss=0.6931472420692444
|===========================================================================|
|                  PyTorch CUDA memory summary, device ID 0                 |
|---------------------------------------------------------------------------|
|            CUDA OOMs: 0            |        cudaMalloc retries: 0         |
|===========================================================================|
|        Metric         | Cur Usage  | Peak Usage | Tot Alloc  | Tot Freed  |
|---------------------------------------------------------------------------|
| Allocated memory      |   77713 KB |  427650 KB |    1275 GB |    1275 GB |
|       from large pool |   70684 KB |  421177 KB |    1259 GB |    1259 GB |
|       from small pool |    7029 KB |    8946 KB |      16 GB |      15 GB |
|---------------------------------------------------------------------------|
| Active memory         |   77713 KB |  427650 KB |    1275 GB |    1275 GB |
|       from large pool |   70684 KB |  421177 KB |    1259 GB |    1259 GB |
|       from small pool |    7029 KB |    8946 KB |      16 GB |      15 GB |
|---------------------------------------------------------------------------|
| GPU reserved memory   |  743424 KB |  743424 KB |  743424 KB |       0 B  |
|       from large pool |  731136 KB |  731136 KB |  731136 KB |       0 B  |
|       from small pool |   12288 KB |   12288 KB |   12288 KB |       0 B  |
|---------------------------------------------------------------------------|
| Non-releasable memory |   30831 KB |  482703 KB |    1295 GB |    1295 GB |
|       from large pool |   27620 KB |  479238 KB |    1278 GB |    1278 GB |
|       from small pool |    3211 KB |    6399 KB |      16 GB |      16 GB |
|---------------------------------------------------------------------------|
| Allocations           |      58    |      74    |  204808    |  204750    |
|       from large pool |      11    |      21    |   62520    |   62509    |
|       from small pool |      47    |      58    |  142288    |  142241    |
|---------------------------------------------------------------------------|
| Active allocs         |      58    |      74    |  204808    |  204750    |
|       from large pool |      11    |      21    |   62520    |   62509    |
|       from small pool |      47    |      58    |  142288    |  142241    |
|---------------------------------------------------------------------------|
| GPU reserved segments |      17    |      17    |      17    |       0    |
|       from large pool |      11    |      11    |      11    |       0    |
|       from small pool |       6    |       6    |       6    |       0    |
|---------------------------------------------------------------------------|
| Non-releasable allocs |      20    |      35    |   71530    |   71510    |
|       from large pool |       5    |      15    |   34566    |   34561    |
|       from small pool |      15    |      26    |   36964    |   36949    |
|---------------------------------------------------------------------------|
| Oversize allocations  |       0    |       0    |       0    |       0    |
|---------------------------------------------------------------------------|
| Oversize GPU segments |       0    |       0    |       0    |       0    |
|===========================================================================|

[TRAIN_TIME] train time is 19.805647 seconds
[EPOCH_TIME] 4.951412 seconds, maybe large due to not enough epoch skipped.
[EPOCH_TIME] 4.589182 seconds

